c description: Random 5-CNF over 15 variables and 45 clauses
c generator: CNFgen (0.9.0)
c copyright: (C) 2012-2020 Massimo Lauria <massimo.lauria@uniroma1.it>
c url: https://massimolauria.net/cnfgen
c
p cnf 15 45
-4 -6 9 -11 -14 0
1 -2 5 7 -12 0
1 7 8 10 -14 0
1 -9 -12 -13 -14 0
-3 -8 -10 13 -15 0
-6 8 9 12 13 0
-3 5 6 -7 15 0
1 4 -12 13 -15 0
-2 4 5 -7 -9 0
-2 -6 9 14 -15 0
-1 2 3 -7 -14 0
4 7 -10 -11 -13 0
-2 -6 9 11 -13 0
2 4 7 8 13 0
-4 -6 -10 -13 14 0
-2 3 4 5 -8 0
2 -3 8 -12 -14 0
1 -2 9 -10 -12 0
1 -4 8 -12 14 0
-5 8 -9 -10 14 0
-2 -6 9 13 -14 0
-4 8 -9 12 15 0
1 -2 -5 -8 14 0
3 -4 -9 -10 -11 0
1 5 -8 -12 -15 0
-2 3 5 10 15 0
-2 3 -7 8 -9 0
-7 9 12 13 -15 0
-1 -3 6 8 9 0
4 6 -7 -13 -15 0
7 8 9 12 -14 0
8 -11 -13 -14 -15 0
1 4 7 10 11 0
-2 -3 -5 9 15 0
-4 10 11 -12 13 0
-2 -4 -6 -7 -9 0
-3 -4 5 9 -12 0
3 -5 8 -13 -15 0
7 9 10 -12 13 0
2 -6 -12 13 -14 0
-4 5 7 8 -9 0
-4 -5 8 -9 10 0
1 -4 9 -10 14 0
-1 -10 -12 13 -14 0
-4 7 -10 -12 -13 0